proyfinal/src/viki/013/andrea/andrea-localstore/experimentInOfficeAgust.take6/worker_2/17d3575b-afa2-4ee8-bb13-cff2f2125b77.als.cnf.out
Reading from standard input... Use '--help' for help.
============================[ Problem Statistics ]=============================
|                                                                             |
|  Number of variables:         87638                                         |
|  Number of clauses:          161767                                         |
|  Parse time:                   0.04 s                                       |
|                                                                             |
============================[ Search Statistics ]==============================
| Conflicts |          ORIGINAL         |          LEARNT          | Progress |
|           |    Vars  Clauses Literals |    Limit  Clauses Lit/Cl |          |
===============================================================================
|       100 |   62726   106387   265898 |    39008      100      9 | 28.426 % |
|       250 |   62726   106387   265898 |    42909      250     22 | 28.426 % |
|       475 |   62726   106387   265898 |    47200      475     30 | 28.426 % |
|       812 |   62726   106387   265898 |    51920      812     50 | 28.426 % |
|      1318 |   51011   106371   265854 |    57112     1257     60 | 41.794 % |
|      2077 |   50868    72512   182683 |    62823     1991     54 | 41.957 % |
|      3216 |   50560    71511   180133 |    69106     2842     48 | 42.308 % |
|      4924 |   50369    70630   178038 |    76016     4534     51 | 42.526 % |
|      7486 |   50099    69545   175451 |    83618     7082     51 | 42.834 % |
|     11330 |   50005    69176   174585 |    91980    10912     51 | 42.941 % |
===============================================================================
restarts              : 63
conflicts             : 16678          (7845 /sec)
decisions             : 51233          (0.00 % random) (24099 /sec)
propagations          : 22786798       (10718473 /sec)
conflict literals     : 853973         (47.92 % deleted)
Memory used           : 37.51 MB
CPU time              : 2.12594 s

UNSATISFIABLE
